# Solution for model problem_
# Objective value = 67334.051345455
x(0_0) 0
x(0_1) 0
x(0_2) 1
x(0_3) 0
x(0_4) 0
x(0_5) 0
x(0_6) 0
x(0_7) 0
x(0_8) 0
x(0_9) 0
x(0_10) 0
x(0_11) 0
x(1_12) 1
x(1_13) 0
x(1_14) 0
x(1_15) 0
x(1_16) 0
x(1_17) 0
x(1_18) 0
x(1_19) 0
x(1_20) 0
x(1_21) 0
x(1_22) 0
x(1_23) 0
x(1_24) 0
x(1_25) 0
x(1_26) 0
x(1_27) 0
x(1_28) 0
x(1_29) 0
x(1_30) 0
x(1_31) 0
x(2_32) 0
x(2_33) 0
x(2_34) 0
x(2_35) 0
x(2_36) 0
x(2_37) 0
x(2_38) 0
x(2_39) 0
x(2_40) 0
x(2_41) 0
x(2_42) 0
x(2_43) 0
x(2_44) 0
x(2_45) 1
x(3_46) 0
x(3_47) 0
x(3_48) 0
x(3_49) 1
x(3_50) 0
x(3_51) 0
x(3_52) 0
x(3_53) 0
x(3_54) 0
x(3_55) 0
x(3_56) 0
x(3_57) 0
x(3_58) 0
x(3_59) 0
x(3_60) 0
x(3_61) 0
x(4_62) 1
x(4_63) 0
x(4_64) 0
x(4_65) 0
x(4_66) 0
x(4_67) 0
x(4_68) 0
x(4_69) 0
x(4_70) 0
x(4_71) 0
x(4_72) 0
x(4_73) 0
x(4_74) 0
x(4_75) 0
x(4_76) 0
x(4_77) 0
x(4_78) 0
x(4_79) 0
x(4_80) 0
x(4_81) 0
x(5_82) 0
x(5_83) 0
x(5_84) 0
x(5_85) 0
x(5_86) 0
x(5_87) 0
x(5_88) 0
x(5_89) 0
x(5_90) 0
x(5_91) 0
x(5_92) 0
x(5_93) 0
x(5_94) 1
x(5_95) 0
x(5_96) 0
x(5_97) 0
x(5_98) 0
x(5_99) 0
x(5_100) 0
x(6_101) 1
x(6_102) 0
x(6_103) 0
x(6_104) 0
x(6_105) 0
x(6_106) 0
x(6_107) 0
x(6_108) 0
x(6_109) 0
x(6_110) 0
x(6_111) 0
x(6_112) 0
x(7_113) 1
x(7_114) 0
x(7_115) 0
x(7_116) 0
x(7_117) 0
x(7_118) 0
x(7_119) 0
x(7_120) 0
x(7_121) 0
x(7_122) 0
x(7_123) 0
x(7_124) 0
x(7_125) 0
x(7_126) 0
x(7_127) 0
x(8_128) 0
x(8_129) 0
x(8_130) 0
x(8_131) 0
x(8_132) 0
x(8_133) 0
x(8_134) 0
x(8_135) 1
x(8_136) 0
x(8_137) 0
x(9_138) 0
x(9_139) 0
x(9_140) 0
x(9_141) 0
x(9_142) 0
x(9_143) 0
x(9_144) 0
x(9_145) 0
x(9_146) 0
x(9_147) 0
x(9_148) 0
x(9_149) 0
x(9_150) 1
x(9_151) 0
x(10_152) 0
x(10_153) 0
x(10_154) 0
x(10_155) 1
x(10_156) 0
x(10_157) 0
x(10_158) 0
x(10_159) 0
x(10_160) 0
x(10_161) 0
x(10_162) 0
x(10_163) 0
x(10_164) 0
x(10_165) 0
x(10_166) 0
x(11_167) 0
x(11_168) 0
x(11_169) 0
x(11_170) 0
x(11_171) 0
x(11_172) 0
x(11_173) 1
x(11_174) 0
x(11_175) 0
x(11_176) 0
x(11_177) 0
x(11_178) 0
x(11_179) 0
x(11_180) 0
x(11_181) 0
x(11_182) 0
x(11_183) 0
x(11_184) 0
x(11_185) 0
x(11_186) 0
x(12_187) 0
x(12_188) 1
x(12_189) 0
x(12_190) 0
x(12_191) 0
x(12_192) 0
x(12_193) 0
x(12_194) 0
x(12_195) 0
x(12_196) 0
x(13_197) 0
x(13_198) 0
x(13_199) 0
x(13_200) 0
x(13_201) 0
x(13_202) 0
x(13_203) 0
x(13_204) 0
x(13_205) 0
x(13_206) 0
x(13_207) 0
x(13_208) 0
x(13_209) 1
x(13_210) 0
x(13_211) 0
x(13_212) 0
x(13_213) 0
x(13_214) 0
x(14_215) 0
x(14_216) 0
x(14_217) 0
x(14_218) 0
x(14_219) 0
x(14_220) 0
x(14_221) 0
x(14_222) 0
x(14_223) 0
x(14_224) 1
x(14_225) 0
x(15_226) 0
x(15_227) 0
x(15_228) 0
x(15_229) 0
x(15_230) 0
x(15_231) 0
x(15_232) 0
x(15_233) 0
x(15_234) 0
x(15_235) 0
x(15_236) 1
x(15_237) 0
x(15_238) 0
x(15_239) 0
x(15_240) 0
x(15_241) 0
x(15_242) 0
x(15_243) 0
x(15_244) 0
x(15_245) 0
x(16_246) 0
x(16_247) 0
x(16_248) 0
x(16_249) 0
x(16_250) 0
x(16_251) 0
x(16_252) 1
x(16_253) 0
x(16_254) 0
x(16_255) 0
x(16_256) 0
x(16_257) 0
x(16_258) 0
x(16_259) 0
x(16_260) 0
x(16_261) 0
x(16_262) 0
x(17_263) 1
x(17_264) 0
x(17_265) 0
x(17_266) 0
x(17_267) 0
x(17_268) 0
x(17_269) 0
x(17_270) 0
x(17_271) 0
x(17_272) 0
x(17_273) 0
x(17_274) 0
x(18_275) 0
x(18_276) 0
x(18_277) 0
x(18_278) 0
x(18_279) 0
x(18_280) 0
x(18_281) 0
x(18_282) 0
x(18_283) 0
x(18_284) 0
x(18_285) 0
x(18_286) 0
x(18_287) 0
x(18_288) 1
x(18_289) 0
x(18_290) 0
x(18_291) 0
x(19_292) 0
x(19_293) 0
x(19_294) 0
x(19_295) 0
x(19_296) 0
x(19_297) 0
x(19_298) 0
x(19_299) 0
x(19_300) 0
x(19_301) 0
x(19_302) 0
x(19_303) 0
x(19_304) 1
x(19_305) 0
x(19_306) 0
x(19_307) 0
x(19_308) 0
x(20_309) 0
x(20_310) 0
x(20_311) 0
x(20_312) 0
x(20_313) 0
x(20_314) 0
x(20_315) 0
x(20_316) 1
x(20_317) 0
x(20_318) 0
x(20_319) 0
x(20_320) 0
x(20_321) 0
x(20_322) 0
x(20_323) 0
x(20_324) 0
x(20_325) 0
x(20_326) 0
x(20_327) 0
x(20_328) 0
x(21_329) 0
x(21_330) 0
x(21_331) 0
x(21_332) 1
x(21_333) 0
x(21_334) 0
x(21_335) 0
x(21_336) 0
x(21_337) 0
x(21_338) 0
x(21_339) 0
x(21_340) 0
x(21_341) 0
x(22_342) 0
x(22_343) 0
x(22_344) 0
x(22_345) 0
x(22_346) 0
x(22_347) 0
x(22_348) 0
x(22_349) 0
x(22_350) 0
x(22_351) 0
x(22_352) 0
x(22_353) 0
x(22_354) 1
x(22_355) 0
x(22_356) 0
x(22_357) 0
x(22_358) 0
x(22_359) 0
x(22_360) 0
x(23_361) 0
x(23_362) 0
x(23_363) 1
x(23_364) 0
x(23_365) 0
x(23_366) 0
x(23_367) 0
x(23_368) 0
x(23_369) 0
x(23_370) 0
x(23_371) 0
x(23_372) 0
x(23_373) 0
x_1_0 1.0740904746018350e+02
s_1_0 0
z_1_0 0
x_1_1 0
s_1_1 7.7940607536584139e-01
z_1_1 1
x_1_2 1.0763814330101013e+02
s_1_2 0
z_1_2 0
x_1_3 1.0772748883254826e+02
s_1_3 0
z_1_3 0
x_1_4 1.0745761710777879e+02
s_1_4 0
z_1_4 0
x_1_5 0
s_1_5 4.3432861533801770e-01
z_1_5 1
x_1_6 1.0870699839666486e+02
s_1_6 0
z_1_6 0
x_1_7 0
s_1_7 0.589815748797264
z_1_7 1
x_1_8 1.0798843430355191e+02
s_1_8 0
z_1_8 0
x_1_9 0
s_1_9 6.5116329287411645e-01
z_1_9 1
x_1_10 1.0882847485784441e+02
s_1_10 0
z_1_10 0
x_1_11 0
s_1_11 3.6820026420173235e-01
z_1_11 1
x_1_12 0
s_1_12 1.0690644960850477e+00
z_1_12 1
x_1_13 0
s_1_13 9.2085313290590420e-01
z_1_13 1
x_1_14 1.0895278703607619e+02
s_1_14 0
z_1_14 0
x_1_15 1.0790405324008316e+02
s_1_15 0
z_1_15 0
x_1_16 1.0813358347490430e+02
s_1_16 0
z_1_16 0
x_1_17 1.0762454505264759e+02
s_1_17 0
z_1_17 0
x_1_18 0
s_1_18 4.1149525402579457e-01
z_1_18 1
x_1_19 0
s_1_19 8.5032208746997640e-01
z_1_19 1
x_1_20 1.0848841759003699e+02
s_1_20 0
z_1_20 0
x_1_21 1.0792653124220669e+02
s_1_21 0
z_1_21 0
x_1_22 1.0777390661463141e+02
s_1_22 0
z_1_22 0
x_1_23 0
s_1_23 8.3652867376804352e-01
z_1_23 1
x_1_24 0
s_1_24 7.6941876218188554e-01
z_1_24 1
x_1_25 1.0799908697232604e+02
s_1_25 0
z_1_25 0
x_1_26 1.0926435847952962e+02
s_1_26 0
z_1_26 0
x_1_27 1.0766578565072268e+02
s_1_27 0
z_1_27 0
x_1_28 1.0747716991603374e+02
s_1_28 0
z_1_28 0
x_1_29 1.0846066593891010e+02
s_1_29 0
z_1_29 0
x_1_30 0
s_1_30 3.6727750906720757e-01
z_1_30 1
x_1_31 1.0916489554615691e+02
s_1_31 0
z_1_31 0
x_1_32 1.0882650829851627e+02
s_1_32 0
z_1_32 0
x_1_33 0
s_1_33 3.2013789331540465e-01
z_1_33 1
x_1_34 0
s_1_34 4.8200240731239319e-01
z_1_34 1
x_1_35 0
s_1_35 8.8607701193541288e-01
z_1_35 1
x_1_36 0
s_1_36 9.4369531341362745e-01
z_1_36 1
x_1_37 0
s_1_37 8.7962970616354141e-01
z_1_37 1
x_1_38 1.0892113016173244e+02
s_1_38 0
z_1_38 0
x_1_39 0
s_1_39 8.7369519320782274e-01
z_1_39 1
x_1_40 1.0773799474909902e+02
s_1_40 0
z_1_40 0
x_1_41 0
s_1_41 8.0768552958033979e-01
z_1_41 1
x_1_42 1.0856634971871972e+02
s_1_42 0
z_1_42 0
x_1_43 1.0744870195677504e+02
s_1_43 0
z_1_43 0
x_1_44 1.0781923846714199e+02
s_1_44 0
z_1_44 0
x_1_45 1.0861646808683872e+02
s_1_45 0
z_1_45 0
x_1_46 0
s_1_46 4.7292863321490586e-01
z_1_46 1
x_1_47 0
s_1_47 7.1961404872126877e-01
z_1_47 1
x_1_48 0
s_1_48 6.7468059516977519e-01
z_1_48 1
x_1_49 0
s_1_49 5.0337201007641852e-01
z_1_49 1
x_1_50 1.0702470793970861e+02
s_1_50 0
z_1_50 0
x_1_51 1.0926866290718317e+02
s_1_51 0
z_1_51 0
x_1_52 1.0842578360438347e+02
s_1_52 0
z_1_52 0
x_1_53 1.0901728590577841e+02
s_1_53 0
z_1_53 0
x_1_54 1.0825507581792772e+02
s_1_54 0
z_1_54 0
x_1_55 0
s_1_55 6.2121003522770479e-01
z_1_55 1
x_1_56 1.0884441098198295e+02
s_1_56 0
z_1_56 0
x_1_57 0
s_1_57 6.9558821897953749e-01
z_1_57 1
x_1_58 1.0769674292579293e+02
s_1_58 0
z_1_58 0
x_1_59 1.0910157199949026e+02
s_1_59 0
z_1_59 0
x_1_60 1.0757458191923797e+02
s_1_60 0
z_1_60 0
x_1_61 0
s_1_61 9.0770551469177008e-01
z_1_61 1
x_1_62 0
s_1_62 6.0184183874662267e-01
z_1_62 1
x_1_63 1.0717638954892755e+02
s_1_63 0
z_1_63 0
x_1_64 0
s_1_64 7.9443891951814294e-01
z_1_64 1
x_1_65 1.0709489165432751e+02
s_1_65 0
z_1_65 0
x_1_66 0
s_1_66 0.424823947600089
z_1_66 1
x_1_67 1.0783167752157897e+02
s_1_67 0
z_1_67 0
x_1_68 0
s_1_68 1.7366177728399634e-01
z_1_68 1
x_1_69 0
s_1_69 8.0258978391066194e-01
z_1_69 1
x_1_70 1.0827848337590694e+02
s_1_70 0
z_1_70 0
x_1_71 1.0868015637062490e+02
s_1_71 0
z_1_71 0
x_1_72 1.0653367148013785e+02
s_1_72 0
z_1_72 0
x_1_73 0
s_1_73 5.1644260459579527e-01
z_1_73 1
x_1_74 1.0849341826699674e+02
s_1_74 0
z_1_74 0
x_1_75 1.0611445862799883e+02
s_1_75 0
z_1_75 0
x_1_76 1.0879365566186607e+02
s_1_76 0
z_1_76 0
x_1_77 1.0896242552809417e+02
s_1_77 0
z_1_77 0
x_1_78 0
s_1_78 7.0410935906693339e-01
z_1_78 1
x_1_79 1.0852069942653179e+02
s_1_79 0
z_1_79 0
x_1_80 1.0794527489691973e+02
s_1_80 0
z_1_80 0
x_1_81 1.0867042162176222e+02
s_1_81 0
z_1_81 0
x_1_82 1.0835612713731825e+02
s_1_82 0
z_1_82 0
x_1_83 0
s_1_83 8.1219762645196170e-01
z_1_83 1
x_1_84 1.0867559014260769e+02
s_1_84 0
z_1_84 0
x_1_85 0
s_1_85 3.4376584838901181e-01
z_1_85 1
x_1_86 0
s_1_86 5.6569881457835436e-01
z_1_86 1
x_1_87 108.569032875821
s_1_87 0
z_1_87 0
x_1_88 0
s_1_88 5.1704924774821848e-01
z_1_88 1
x_1_89 0
s_1_89 4.0968196978792548e-01
z_1_89 1
x_1_90 0
s_1_90 8.4984931035432965e-01
z_1_90 1
x_1_91 1.0816626026853919e+02
s_1_91 0
z_1_91 0
x_1_92 1.0887668804917485e+02
s_1_92 0
z_1_92 0
x_1_93 1.0808085541427135e+02
s_1_93 0
z_1_93 0
x_1_94 1.0912954562902451e+02
s_1_94 0
z_1_94 0
x_1_95 0
s_1_95 5.4648847039788961e-01
z_1_95 1
x_1_96 0
s_1_96 6.6891239432152361e-01
z_1_96 1
x_1_97 0
s_1_97 7.2436537366593257e-01
z_1_97 1
x_1_98 1.0794631532579660e+02
s_1_98 0
z_1_98 0
x_1_99 0
s_1_99 6.8487249858299037e-01
z_1_99 1
x_1_100 0
s_1_100 1.0024963520700112e+00
z_1_100 1
x_1_101 0
s_1_101 6.6896022111177444e-01
z_1_101 1
x_1_102 0
s_1_102 3.3854656107723713e-01
z_1_102 1
x_1_103 0
s_1_103 2.4771619634702802e-01
z_1_103 1
x_1_104 1.0820954216644168e+02
s_1_104 0
z_1_104 0
x_1_105 0
s_1_105 5.0407697353512049e-01
z_1_105 1
x_1_106 1.0859975824691355e+02
s_1_106 0
z_1_106 0
x_1_107 1.0880537193268538e+02
s_1_107 0
z_1_107 0
x_1_108 1.0780729925259948e+02
s_1_108 0
z_1_108 0
x_1_109 0
s_1_109 5.0490368052851409e-01
z_1_109 1
x_1_110 1.0807562326267362e+02
s_1_110 0
z_1_110 0
x_1_111 1.0810968941077590e+02
s_1_111 0
z_1_111 0
x_1_112 0
s_1_112 5.0316863204352558e-01
z_1_112 1
x_1_113 1.0874665876687504e+02
s_1_113 0
z_1_113 0
x_1_114 0
s_1_114 7.2624838433694094e-01
z_1_114 1
x_1_115 0
s_1_115 6.3710406422615051e-01
z_1_115 1
x_1_116 0
s_1_116 5.9192891497514211e-01
z_1_116 1
x_1_117 1.0659211827628314e+02
s_1_117 0
z_1_117 0
x_1_118 1.0841920010000467e+02
s_1_118 0
z_1_118 0
x_1_119 1.0904445464815944e+02
s_1_119 0
z_1_119 0
x_1_120 1.0799143311660737e+02
s_1_120 0
z_1_120 0
x_1_121 1.0877635035850108e+02
s_1_121 0
z_1_121 0
x_1_122 1.0816539663448930e+02
s_1_122 0
z_1_122 0
x_1_123 0
s_1_123 7.1963001447147690e-01
z_1_123 1
x_1_124 0
s_1_124 6.7336816084571183e-01
z_1_124 1
x_1_125 1.0791005906090140e+02
s_1_125 0
z_1_125 0
x_1_126 0
s_1_126 3.9881186984712258e-01
z_1_126 1
x_1_127 1.0791870560869575e+02
s_1_127 0
z_1_127 0
x_1_128 0
s_1_128 7.5094628013903275e-01
z_1_128 1
x_1_129 0
s_1_129 7.0111051783896983e-01
z_1_129 1
x_1_130 0
s_1_130 6.7157259932719171e-01
z_1_130 1
x_1_131 1.0882253508828580e+02
s_1_131 0
z_1_131 0
x_1_132 1.0536092204228044e+02
s_1_132 0
z_1_132 0
x_1_133 0
s_1_133 7.7972346940077841e-01
z_1_133 1
x_1_134 1.0908723223954439e+02
s_1_134 0
z_1_134 0
x_1_135 1.0874093766137958e+02
s_1_135 0
z_1_135 0
x_1_136 1.0781224541738629e+02
s_1_136 0
z_1_136 0
x_1_137 1.0745862822607160e+02
s_1_137 0
z_1_137 0
x_1_138 1.0805047819763422e+02
s_1_138 0
z_1_138 0
x_1_139 1.0934759876690805e+02
s_1_139 0
z_1_139 0
x_1_140 0
s_1_140 8.0953504843637347e-01
z_1_140 1
x_1_141 1.0772990340925753e+02
s_1_141 0
z_1_141 0
x_1_142 1.0775383967068046e+02
s_1_142 0
z_1_142 0
x_1_143 1.0843821322545409e+02
s_1_143 0
z_1_143 0
x_1_144 1.0932871984690428e+02
s_1_144 0
z_1_144 0
x_1_145 1.0892089489102364e+02
s_1_145 0
z_1_145 0
x_1_146 0
s_1_146 6.4134262502193451e-01
z_1_146 1
x_1_147 0
s_1_147 6.6110215208027512e-01
z_1_147 1
x_1_148 1.0517713903542608e+02
s_1_148 0
z_1_148 0
x_1_149 0
s_1_149 5.3416124096838757e-01
z_1_149 1
x_1_150 1.0837045587971807e+02
s_1_150 0
z_1_150 0
x_1_151 1.0876489292085171e+02
s_1_151 0
z_1_151 0
x_1_152 1.0778632962517440e+02
s_1_152 0
z_1_152 0
x_1_153 1.0869721605349332e+02
s_1_153 0
z_1_153 0
x_1_154 0
s_1_154 3.6190898343920708e-01
z_1_154 1
x_1_155 1.0775020813196898e+02
s_1_155 0
z_1_155 0
x_1_156 1.0808807321637869e+02
s_1_156 0
z_1_156 0
x_1_157 1.0854825917631388e+02
s_1_157 0
z_1_157 0
x_1_158 1.0905791978677735e+02
s_1_158 0
z_1_158 0
x_1_159 1.0885806376277469e+02
s_1_159 0
z_1_159 0
x_2_0 6.6828247345454991e+04
